223 5
10 10 10 10 10 

0 0 0 0 0 0 1 2 
0 0 0 0 0 0 4 3 4 5 6 
7 0 1 0 0 0 2 9 7 
2 0 5 0 0 0 2 9 7 
10 0 3 0 0 0 2 9 7 
2 0 4 0 0 0 2 9 7 
3 0 2 0 0 0 1 8 
8 0 4 0 0 0 2 11 10 
3 0 1 0 0 0 2 11 10 
7 0 2 0 0 0 1 12 
2 0 2 0 0 0 1 12 
9 0 1 0 0 0 1 13 
0 0 0 0 0 0 1 14 
0 0 0 0 0 0 2 15 19 
1 0 1 0 0 0 2 17 16 
2 0 3 0 0 0 2 20 18 
5 0 2 0 0 0 1 18 
4 0 3 0 0 0 2 22 21 
6 0 1 0 0 0 2 22 21 
8 0 2 0 0 0 1 21 
1 0 4 0 0 0 2 24 23 
1 0 2 0 0 0 2 24 23 
8 0 6 0 0 0 1 25 
1 0 1 0 0 0 1 25 
0 0 0 0 0 0 3 26 38 50 
0 0 0 0 0 0 2 27 29 
6 0 0 1 0 0 2 32 28 
6 0 0 3 0 0 2 33 31 
6 0 0 2 0 0 1 30 
1 0 0 2 0 0 1 31 
7 0 0 4 0 0 2 36 34 
10 0 0 2 0 0 2 36 34 
1 0 0 3 0 0 1 34 
9 0 0 2 0 0 1 35 
3 0 0 3 0 0 2 37 150 
6 0 0 3 0 0 1 37 
0 0 0 0 0 0 1 62 
0 0 0 0 0 0 3 39 42 44 
8 1 0 0 0 0 2 43 40 
6 3 0 0 0 0 2 47 41 
7 5 0 0 0 0 2 48 45 
1 2 0 0 0 0 2 47 45 
5 1 0 0 0 0 2 47 46 
6 5 0 0 0 0 1 45 
4 2 0 0 0 0 1 46 
10 1 0 0 0 0 1 49 
8 4 0 0 0 0 2 49 161 
8 1 0 0 0 0 1 49 
0 0 0 0 0 0 1 62 
0 0 0 0 0 0 4 51 54 56 60 
9 0 0 0 0 1 1 52 
7 0 0 0 0 5 3 59 53 212 
3 0 0 0 0 2 2 58 55 
1 0 0 0 0 2 2 58 57 
9 0 0 0 0 3 1 57 
4 0 0 0 0 2 1 59 
6 0 0 0 0 4 1 61 
1 0 0 0 0 1 1 61 
1 0 0 0 0 2 1 61 
2 0 0 0 0 3 1 61 
0 0 0 0 0 0 1 62 
0 0 0 0 0 0 5 63 85 107 119 141 
0 0 0 0 0 0 2 64 83 
1 1 1 0 0 0 1 65 
9 3 2 0 0 0 2 82 66 
1 3 3 0 0 0 2 74 67 
2 2 3 0 0 0 3 81 71 68 
3 2 4 0 0 0 2 79 69 
3 3 1 0 0 0 1 70 
3 1 3 0 0 0 3 78 77 72 
4 4 3 0 0 0 2 77 72 
5 3 2 0 0 0 2 76 73 
8 2 3 0 0 0 2 75 173 
6 4 2 0 0 0 1 80 
10 4 1 0 0 0 1 84 
7 1 1 0 0 0 1 84 
1 3 1 0 0 0 1 84 
10 3 2 0 0 0 1 84 
4 2 5 0 0 0 1 84 
10 2 2 0 0 0 1 84 
3 3 6 0 0 0 1 84 
4 2 3 0 0 0 1 84 
6 2 2 0 0 0 1 84 
0 0 0 0 0 0 1 223 
0 0 0 0 0 0 2 86 88 
1 0 1 0 0 1 2 91 87 
7 0 2 0 0 1 1 89 
3 0 2 0 0 2 1 89 
4 0 2 0 0 3 4 97 96 94 90 
3 0 2 0 0 5 3 101 95 92 
6 0 3 0 0 2 3 97 96 93 
8 0 2 0 0 2 2 104 93 
6 0 3 0 0 3 2 103 98 
1 0 3 0 0 2 4 105 104 103 102 
5 0 3 0 0 1 2 103 99 
2 0 2 0 0 2 3 105 103 102 
10 0 4 0 0 3 2 104 100 
9 0 1 0 0 2 1 99 
5 0 4 0 0 2 1 100 
9 0 1 0 0 3 1 102 
1 0 3 0 0 5 2 104 189 
2 0 3 0 0 3 1 106 
4 0 2 0 0 3 1 106 
7 0 3 0 0 1 1 106 
8 0 4 0 0 4 1 106 
0 0 0 0 0 0 1 223 
0 0 0 0 0 0 4 108 115 116 117 
5 0 0 0 1 0 3 114 113 109 
8 0 0 0 3 0 1 110 
8 0 0 0 1 0 1 111 
3 0 0 0 5 0 2 112 213 
5 0 0 0 1 0 1 118 
2 0 0 0 3 0 1 118 
8 0 0 0 4 0 1 118 
1 0 0 0 2 0 1 118 
1 0 0 0 3 0 1 118 
7 0 0 0 2 0 1 118 
0 0 0 0 0 0 5 163 175 187 199 211 
0 0 0 0 0 0 2 120 122 
6 0 1 0 1 0 2 126 121 
3 0 3 0 2 0 1 123 
10 0 2 0 2 0 1 123 
10 0 4 0 2 0 3 128 125 124 
9 0 3 0 3 0 3 139 130 127 
10 0 2 0 4 0 3 132 131 130 
1 0 2 0 2 0 3 132 129 128 
2 0 1 0 3 0 2 131 129 
3 0 3 0 3 0 3 138 137 134 
2 0 2 0 1 0 2 137 133 
1 0 3 0 3 0 2 137 133 
10 0 1 0 2 0 3 138 137 136 
6 0 4 0 3 0 3 139 137 136 
2 0 4 0 4 0 1 134 
4 0 2 0 1 0 1 135 
4 0 2 0 4 0 1 136 
1 0 1 0 5 0 1 140 
3 0 4 0 2 0 1 140 
4 0 2 0 2 0 1 140 
10 0 4 0 1 0 1 140 
0 0 0 0 0 0 1 223 
0 0 0 0 0 0 1 142 
6 0 0 1 0 1 2 145 143 
2 0 0 3 0 3 1 144 
1 0 0 4 0 1 1 146 
2 0 0 2 0 4 1 146 
5 0 0 3 0 1 2 148 147 
6 0 0 3 0 1 3 157 153 149 
1 0 0 1 0 6 4 154 153 152 151 
1 0 0 3 0 4 3 154 151 150 
3 0 0 3 0 3 1 152 
9 0 0 4 0 5 4 161 160 159 158 
4 0 0 3 0 2 3 160 159 155 
1 0 0 1 0 3 2 160 158 
6 0 0 3 0 2 1 156 
5 0 0 1 0 2 1 158 
9 0 0 1 0 2 1 158 
9 0 0 3 0 3 1 159 
6 0 0 3 0 2 1 162 
6 0 0 4 0 1 1 162 
4 0 0 2 0 2 1 162 
6 0 0 2 0 2 1 162 
0 0 0 0 0 0 1 223 
0 0 0 0 0 0 4 164 168 171 173 
4 1 0 0 0 0 3 170 166 165 
6 2 0 0 0 0 1 167 
1 2 0 0 0 0 1 167 
8 3 0 0 0 0 1 169 
7 3 0 0 0 0 1 169 
2 6 0 0 0 0 1 172 
6 3 0 0 0 0 1 172 
9 2 0 0 0 0 1 172 
4 1 0 0 0 0 1 174 
7 2 0 0 0 0 1 174 
0 0 0 0 0 0 1 223 
0 0 0 0 0 0 3 176 177 179 
8 0 0 1 0 0 2 180 178 
7 0 0 2 0 0 1 178 
3 0 0 3 0 0 3 185 183 181 
2 0 0 4 0 0 2 185 180 
4 0 0 3 0 0 2 183 182 
9 0 0 4 0 0 1 182 
1 0 0 1 0 0 1 184 
3 0 0 2 0 0 1 184 
10 0 0 2 0 0 1 186 
9 0 0 3 0 0 1 186 
0 0 0 0 0 0 1 223 
0 0 0 0 0 0 2 188 197 
2 1 0 0 0 0 5 196 195 194 191 189 
2 1 0 0 0 0 1 190 
7 4 0 0 0 0 1 192 
8 4 0 0 0 0 1 192 
4 5 0 0 0 0 1 193 
2 1 0 0 0 0 1 198 
8 2 0 0 0 0 1 198 
4 3 0 0 0 0 1 198 
4 3 0 0 0 0 1 198 
1 1 0 0 0 0 1 198 
0 0 0 0 0 0 1 223 
0 0 0 0 0 0 2 200 201 
4 0 0 0 1 0 2 209 202 
7 0 0 0 2 0 2 209 203 
7 0 0 0 1 0 1 203 
3 0 0 0 3 0 4 208 207 206 204 
6 0 0 0 4 0 1 205 
9 0 0 0 6 0 1 210 
7 0 0 0 2 0 1 210 
7 0 0 0 2 0 1 210 
7 0 0 0 2 0 1 210 
8 0 0 0 2 0 1 210 
0 0 0 0 0 0 1 223 
0 0 0 0 0 0 3 212 216 217 
1 0 0 1 0 0 1 213 
10 0 0 3 0 0 2 215 214 
4 0 0 3 0 0 2 219 218 
6 0 0 3 0 0 2 221 219 
4 0 0 1 0 0 2 220 219 
3 0 0 2 0 0 2 220 219 
2 0 0 4 0 0 1 220 
6 0 0 2 0 0 1 222 
6 0 0 3 0 0 1 222 
1 0 0 3 0 0 1 222 
0 0 0 0 0 0 1 223 
0 0 0 0 0 0 0 
